NAME 
ROWS
 N  OBJ
 L  R0      
 E  R1      
 E  R2      
 E  R3      
 E  R4      
 E  R5      
 E  R6      
 E  R7      
 E  R8      
 E  R9      
 E  R10     
COLUMNS
    MARKER    'MARKER'                 'INTORG'
    I0(3)     OBJ       -11
    I0(3)     R0        73
    I0(3)     R1        4
    I0(3)     R10       1
    I1(6)     OBJ       -146
    I1(6)     R0        193
    I1(6)     R1        16
    I1(6)     R2        14
    I1(6)     R3        17
    I1(6)     R4        14
    I1(6)     R10       1
    I2(4)     OBJ       53
    I2(4)     R0        -75
    I2(4)     R2        12
    I2(4)     R4        1
    I2(4)     R10       1
    I3(6)     OBJ       -132
    I3(6)     R0        63
    I3(6)     R1        6
    I3(6)     R2        6
    I3(6)     R3        7
    I3(6)     R4        16
    I3(6)     R10       1
    MARKER    'MARKER'                 'INTEND'
    C4(8)     OBJ       8
    C4(8)     R0        -9
    C4(8)     R1        7
    C4(8)     R2        15
    C4(8)     R4        14
    C4(8)     R5        4
    C4(8)     R7        19
    C4(8)     R8        14
    C4(8)     R9        13
    C5(10)    OBJ       2
    C5(10)    R0        -4
    C5(10)    R1        15
    C5(10)    R2        2
    C5(10)    R3        7
    C5(10)    R4        7
    C5(10)    R5        7
    C5(10)    R6        7
    C5(10)    R7        2
    C5(10)    R8        10
    C5(10)    R9        -1
    C6(9)     OBJ       8
    C6(9)     R0        -8
    C6(9)     R2        5
    C6(9)     R3        18
    C6(9)     R4        14
    C6(9)     R5        18
    C6(9)     R6        3
    C6(9)     R7        2
    C6(9)     R8        19
    C6(9)     R9        8
    C7(10)    OBJ       -5
    C7(10)    R0        4
    C7(10)    R1        11
    C7(10)    R2        14
    C7(10)    R3        11
    C7(10)    R4        5
    C7(10)    R5        3
    C7(10)    R6        9
    C7(10)    R7        3
    C7(10)    R8        14
    C7(10)    R9        3
    C8(7)     OBJ       -7
    C8(7)     R0        -4
    C8(7)     R1        18
    C8(7)     R3        3
    C8(7)     R5        3
    C8(7)     R6        -1
    C8(7)     R7        7
    C8(7)     R8        8
    C9(7)     OBJ       6
    C9(7)     R0        -7
    C9(7)     R1        -1
    C9(7)     R3        17
    C9(7)     R4        10
    C9(7)     R5        14
    C9(7)     R7        1
    C9(7)     R8        17
    C10(1)    R1        1
    C11(1)    R2        1
    C12(1)    R3        1
    C13(1)    R4        1
    C14(1)    R5        1
    C15(1)    R6        1
    C16(1)    R7        1
    C17(1)    R8        1
    C18(1)    R9        1
    C19(1)    R10       1
RHS
    RHS1      R0        2.0536363636363637e+02
    RHS1      R1        50
    RHS1      R2        73
    RHS1      R3        62
    RHS1      R4        74
    RHS1      R5        76
    RHS1      R6        60
    RHS1      R7        53
    RHS1      R8        62
    RHS1      R9        95
    RHS1      R10       1
BOUNDS
 UP BND1      I0(3)     2
 UP BND1      I1(6)     2
 UP BND1      I2(4)     2
 UP BND1      I3(6)     2
ENDATA
